c 1 2 U
p cnf 2 10
1,0
-1,0
2,2,0
-2,-2,0
-1,-2,0
1,2,0
-2,1,0
1,-2,0
-1,-2,0
1,2,0

c 2 3 S
p cnf 3 10
1,2,0
-2,3,0
-1,3,0
1,-3,0
2,3,0
-1,2,0
-3,-2,0
1,-2,0
3,2,0
-1,-3,0

c 3 3 U
p cnf 3 10
1,0
-1,0
2,3,0
-2,-3,0
-2,3,0
2,-3,0
1,2,0
-1,-2,0
-3,-1,0
3,1,0

c 4 4 S
p cnf 4 10
1,2,0
-2,3,0
-3,4,0
1,-4,0
2,-1,0
3,4,0
-1,-3,0
-2,-4,0
1,3,0
-4,-1,0

c 5 4 U
p cnf 4 10
1,0
-1,0
2,-2,0
3,-3,0
4,-4,0
1,2,0
2,3,0
-3,4,0
-4,2,0
3,1,0

c 6 5 S
p cnf 5 10
1,2,0
2,3,0
3,4,0
4,5,0
-5,-1,0
-2,4,0
-3,1,0
5,-2,0
2,-4,0
1,3,0

c 7 5 U
p cnf 5 10
1,0
-1,0
2,0
-2,0
3,-3,0
4,-4,0
5,-5,0
1,2,0
-3,4,0
-5,1,0

c 8 6 S
p cnf 6 10
1,2,0
3,4,0
5,6,0
-2,3,0
-4,5,0
-6,1,0
1,3,0
2,4,0
3,5,0
4,6,0

c 9 6 U
p cnf 6 10
1,0
-1,0
2,0
-2,0
3,0
-3,0
4,-4,0
5,-5,0
6,-6,0
-1,-2,0

c 10 7 S
p cnf 7 10
1,2,0
3,4,0
5,6,0
7,-1,0
-2,3,0
-4,5,0
-6,7,0
1,3,0
2,4,0
3,5,0

c 11 7 U
p cnf 7 10
1,0
-1,0
2,0
-2,0
3,0
-3,0
4,0
-4,0
5,0
-5,0

c 12 3 S
p cnf 3 10
1,2,0
2,3,0
-3,1,0
-1,-2,0
2,-3,0
3,-1,0
-2,3,0
-3,-1,0
1,-2,0
2,3,0

c 13 4 U
p cnf 4 10
1,0
-1,0
2,0
-2,0
3,-3,0
4,-4,0
1,2,0
-3,4,0
2,-4,0
1,-2,0

c 14 5 S
p cnf 5 10
1,2,0
2,3,0
3,4,0
4,5,0
-5,1,0
-2,4,0
-3,5,0
1,4,0
2,5,0
3,1,0

c 15 2 U
p cnf 2 10
1,0
-1,0
2,0
-2,0
1,2,0
-1,-2,0
1,-2,0
2,-1,0
-1,2,0
-2,1,0

c 16 6 S
p cnf 6 10
1,2,0
2,3,0
3,4,0
4,5,0
5,6,0
-6,-1,0
-2,4,0
-3,5,0
-4,6,0
1,3,0

c 17 3 U
p cnf 3 10
1,0
-1,0
2,0
-2,0
3,-3,0
1,2,0
-2,-3,0
3,1,0
-1,-3,0
2,-1,0

c 18 7 S
p cnf 7 10
1,2,0
3,4,0
5,6,0
7,1,0
-2,3,0
-4,5,0
-6,7,0
-1,3,0
2,4,0
3,5,0

c 19 4 U
p cnf 4 10
1,0
-1,0
2,0
-2,0
3,0
-3,0
4,0
-4,0
1,2,0
-1,-2,0

c 20 5 S
p cnf 5 10
1,2,0
3,4,0
5,1,0
-2,3,0
-4,5,0
-1,4,0
2,-5,0
3,-1,0
4,-2,0
5,-3,0